documentations/cours/Programmation contraintes/autre projet 5/projet5/dzns/n7.dzn
n = 7;
nb_couleurs = 8;
nb_couleurs2 = 9;
nb_formes = 5;
nb_variantes = 5;
gris = 1;
t = [|1,307,992,1,
|1,307,732,307,
|1,992,850,307,
|1,732,850,992,
|1,647,637,732,
|1,1749,1438,647,
|1,1,1223,1749,
|992,537,1250,1,
|732,992,992,537,
|850,757,992,992,
|850,1498,647,757,
|637,647,992,1498,
|1438,637,307,647,
|1223,1,537,637,
|1250,1438,1438,1,
|992,647,1250,1438,
|992,1692,992,647,
|647,1749,1472,1692,
|992,647,339,1749,
|307,1472,1498,647,
|537,1,647,1472,
|1438,1250,339,1,
|1250,339,837,1250,
|992,1472,1472,339,
|1472,647,650,1472,
|339,812,1250,647,
|1498,992,647,812,
|647,1,1223,992,
|339,1498,732,1,
|837,850,757,1498,
|1472,1438,637,850,
|650,647,1749,1438,
|1250,1749,1692,647,
|647,339,537,1749,
|1223,1,732,339,
|732,647,1472,1,
|757,1250,1438,647,
|637,537,1438,1250,
|1749,1250,1692,537,
|1692,1749,1472,1250,
|537,1223,650,1749,
|732,1,1472,1223,
|1472,1223,1,1,
|1438,1472,1,1223,
|1438,1749,1,1472,
|1692,732,1,1749,
|1472,537,1,732,
|650,837,1,537,
|1472,1,1,837,
|];