documentations/cours/Programmation contraintes/projet5/problemes/n7
g### YBsn RBxn g###
g### YBsn GYsn YBsn
g### RBxn GOcp YBsn
g### GYsn GOcp RBxn
g### BPcn BPqn GYsn
g### VOcr PBqc BPcn
g### g### OBcc VOcr
RBxn BBqn OGcp g###
GYsn RBxn RBxn BBqn
GOcp GBsn RBxn RBxn
GOcp PRcc BPcn GBsn
BPqn BPcn RBxn PRcc
PBqc BPqn YBsn BPcn
OBcc g### BBqn BPqn
OGcp PBqc PBqc g###
RBxn BPcn OGcp PBqc
RBxn VGxn RBxn BPcn
BPcn VOcr PGcn VGxn
RBxn BPcn YGqr VOcr
YBsn PGcn PRcc BPcn
BBqn g### BPcn PGcn
PBqc OGcp YGqr g###
OGcp YGqr GOqn OGcp
RBxn PGcn PGcn YGqr
PGcn BPcn BPcp PGcn
YGqr GRqn OGcp BPcn
PRcc RBxn BPcn GRqn
BPcn g### OBcc RBxn
YGqr PRcc GYsn g###
GOqn GOcp GBsn PRcc
PGcn PBqc BPqn GOcp
BPcp BPcn VOcr PBqc
OGcp VOcr VGxn BPcn
BPcn YGqr BBqn VOcr
OBcc g### GYsn YGqr
GYsn BPcn PGcn g###
GBsn OGcp PBqc BPcn
BPqn BBqn PBqc OGcp
VOcr OGcp VGxn BBqn
VGxn VOcr PGcn OGcp
BBqn OBcc BPcp VOcr
GYsn g### PGcn OBcc
PGcn OBcc g### g###
PBqc PGcn g### OBcc
PBqc VOcr g### PGcn
VGxn GYsn g### VOcr
PGcn BBqn g### GYsn
BPcp GOqn g### BBqn
PGcn g### g### GOqn
